41185.93,67.12,81.4
42287.14,65.38,79.28
39257.05,70.42,85.4
40217.22,68.74,83.36
39861.09,69.36,84.11
38983.03,70.92,86.0
38959.03,70.96,86.05
37745.42,73.24,88.82
42518.92,65.02,78.85
38706.93,71.42,86.61
42487.51,65.07,78.91
43393.57,63.71,77.26
39670.64,69.69,84.51
39774.24,69.51,84.29
40765.44,67.82,82.24
41082.71,67.29,81.61
42049.17,65.75,79.73
39151.5,70.61,85.63
37490.01,73.74,89.43
40607.02,68.08,82.56
